%chk=C:\Users\sagad\Documents\rayGit\FQ\quimicaComputacional\class2FluorMolecule\f2.chk
# opt freq b3lyp/6-31+(d) geom=connectivity

Title Card Required

0 1
 F                 -1.34816752    2.62434557    0.00000000
 F                 -2.50816752    2.62434557    0.00000000

 1 2 1.0
 2

