%chk=D:\Documents\rayGit\FQ\quimicaComputacional\proyecto\decompositionHydrogenPeroxide\descompositionByRadicals\gasPhase\step4\ts\tsM062X.chk
%mem=1500MB
%nprocshared=4
# opt=(calcfc,ts,noeigen,maxcycles=100) freq=noraman 6-31+g(d,p) m062x

ts2

0 1
 O                 -0.45749288   -0.42312315    0.00000000
 O                  0.66823238   -0.00749995    0.00000000
 H                  1.62710122    1.14600365    0.00000000
 O                  1.59754612    2.46868147    0.00000000
 H                  2.55754612    2.46868147    0.00000000

