%chk=C:\Users\sagad\Documents\rayGit\FQ\quimicaComputacional\class3Eteno\estadoDeTransicion\TSETHENEOHRADICALHF.chk
%nprocshared=4
%mem=500mb
# opt=(readfc,ts,noeigen) geom=check guess=check freq=noraman 6-31+g(d,p) iop(1/8=3) hf

Transition state Ethene OH radical with HF ending

0 2

