%chk=C:\Users\sagad\Documents\rayGit\FQ\quimicaComputacional\class3Eteno\estadoDeTransicion\TSETHENEOHRADICALB3LYP.chk
%nprocshared=4
%mem=500mb
# opt=(readfc,ts,noeigen) geom=check guess=check freq=noraman 6-31+g(d,p) iop(1/8=3) b3lyp

Transition state Ethene OH radical with B3LYP 2 ending convergence

0 2
