%chk=D:\Documents\rayGit\FQ\quimicaComputacional\proyecto\decompositionHydrogenPeroxide\descompositionByRadicals\solvated\step1\ts\ts1M062X.chk
%mem=1500MB
%nprocshared=4
# opt(calcfc,ts,noeigen) freq=noraman 6-31+g(d,p) scrf=smd m062x iop(1/8=3)

transition state solvated with m062x

0 1
 O                 -0.93176762   -0.00749995    0.00000000
 H                 -1.25222221   -0.00749995   -0.90493583
 O                  0.66823238   -0.00749995    0.00000000
 H                  0.98823238    0.89759673    0.00000000

