%chk=C:\Users\sagad\Documents\rayGit\FQ\quimicaComputacional\fenol\reactivos\fenolatoM062X.chk
%mem=1500MB
%nprocshared=4
# opt=noeigen freq=noraman 6-31+g(d,p) m062x srcf=smd 

Estado de transicion fenolato m062x

-1 1
 C                 -0.47791682    1.47762563   -0.01835208
 C                  0.91224936    1.44281264   -0.13103511
 C                  1.64511398    2.62883519   -0.09254213
 C                  0.98771013    3.85052365    0.05750460
 C                 -0.40216231    3.88528924    0.16967850
 C                 -1.13502575    2.69873446    0.13214454
 H                 -1.05549659    0.54239896   -0.04827724
 H                  1.43006367    0.47989115   -0.24890077
 H                  1.56575457    4.78553436    0.08776900
 H                 -0.92056727    4.84796566    0.28793523
 H                 -2.23070224    2.72636941    0.22079188
 O                  3.07006321    2.59318992   -0.20721170

