%chk=C:\Users\sagad\Documents\rayGit\FQ\quimicaComputacional\class2FluorMolecule\fluorAtom\F_HF.chk
# freq HF/6-31+g(d) 

Fluor Atom Calculate with Hartree-Fock Method 

0 2
 F                 -0.03276540    1.93971154    0.00000000
