%chk=fluorB3LYP.chk
# opt freq b3lyp/6-31+g(d) 
%nproc=4
%mem=1gb


Title Card Required

0 1
 F                 -3.31999997    0.51999999    0.00000000
 F                 -2.15999997    0.51999999    0.00000000

