%chk=C:\Users\sagad\Documents\rayGit\FQ\quimicaComputacional\clase2FluorMolecule\fluorAtom\fluor.chk
# b3lyp/6-31+g(d) geom=connectivity

Title Card Required

0 2
 F                  0.56000001    1.11999998    0.00000000

 1

