%chk=D:\Documents\rayGit\FQ\quimicaComputacional\p4Pka\reactivos\aceticAcidM062x.chk
%mem=1500MB
%nprocshared=4
# opt freq 6-31+g(d,p) scrf=smd m062x

acetic acid m062x

0 1
 C                 -0.05876068    0.11752137    0.00000000
 O                  0.41790624    0.11751549    1.34821684
 O                 -1.48876068    0.11753899    0.00000000
 H                 -1.80876068    0.11754293    0.90509668
 C                  0.45457259    0.11751504   -1.45192595
 H                  0.09805486   -0.75622990   -1.95627195
 H                  0.09775684    0.99107308   -1.95638494
 H                  1.52457257    0.11769754   -1.45192620

