%chk=D:\Documents\rayGit\FQ\quimicaComputacional\p4Pka\reactivos\carbonochloricAcidM062x.chk
%mem=1500mb
%nproc=4
# opt freq 6-311+G(d,p) scrf=smd m062x

carbonochloric acid m062x 

0 1
 C                 -0.06410256    1.32478631    0.00000000
 O                  0.76392899    2.26755501    0.68589424
 O                  0.34868622   -0.03961624   -0.11362702
 Cl                -1.59126606    1.84372027   -0.70432889
 H                  1.19706884   -0.15450137    0.32070966
