%chk=D:\Documents\rayGit\FQ\quimicaComputacional\p4Pka\reactivos\hidronio3WatersM062x.chk
%mem=1500MB
%nprocshared=4
# opt freq geom=check guess=check 6-31+g(d,p) scrf=smd m062x

Hidronio m062x con tres aguas two

1 1
