%chk=D:\Documents\rayGit\FQ\quimicaComputacional\p4Pka\reactivos\propaneAcidM062x.chk
%mem=1500MB
%nprocshared=4
# opt freq 6-311+g(d,p) scrf=smd m062x

propa ne acid m062x

0 1
 C                 -0.05876068    0.11752137    0.00000000
 O                  0.41790624    0.11751549    1.34821684
 O                 -1.48876068    0.11753899    0.00000000
 H                 -1.80876068    0.11754293    0.90509668
 C                  0.45457259    0.11751504   -1.45192595
 H                  0.09805486   -0.75622990   -1.95627195
 H                  0.09775684    0.99107308   -1.95638494
 C                  1.99457257    0.11777770   -1.45192631
 H                  2.35138787   -0.75483295   -0.94582998
 H                  2.35123901    0.11588220   -2.46073028
 H                  2.35109036    0.99246640   -0.94921889

