%chk=D:\Documents\rayGit\FQ\quimicaComputacional\p2_radicalReaction\pruebaTs\productos.chk
# hf/3-21g geom=connectivity

Title Card Required

0 2
 C                 -3.45566014    5.19893327   -2.57914791
 H                 -2.58569000    2.73819111   -2.57914791
 H                 -3.09898730    5.70333146   -1.70549641
 H                 -3.09898730    5.70333146   -3.45279941
 H                 -4.52566014    5.19894645   -2.57914791
 O                 -2.26570098    1.83309055   -2.57914791
 H                 -1.30570098    1.83307890   -2.57914791

 1 3 1.0 4 1.0 5 1.0
 2 6 1.0
 3
 4
 5
 6 7 1.0
 7

