%chk=C:\Users\sagad\Documents\rayGit\FQ\quimicaComputacional\clase8Pka\productos\hidroniumM062x.chk
%mem=1gb
%nproc=4
# opt freq scrf=smd m062x/6-31+G(d,p)

hidronio en medio acuoso m062x

1 1
 O                 -0.29799404    1.66319815    0.00000000
 H                  0.65797869    1.57535659    0.00000000
 H                 -0.69990739    2.53501559    0.00000000
 H                 -0.85205342    0.87922225    0.00000000


