%chk=C:\Users\sagad\Documents\rayGit\FQ\quimicaComputacional\clase8Pka\productos\hidroniumM062x.chk
%mem=1500mb
%nprocshared=4
# opt freq 6-31+g(d,p) scrf=smd m062x

hidronio en medio acuoso m062x

1 1
 O                 -0.29799404    1.66319815    0.00000000
 H                  0.61703341    1.60429385   -0.28435021
 H                 -0.65896211    2.50607833   -0.28435021
 H                 -0.85205342    0.87922225    0.00000000

