%chk=C:\Users\sagad\Documents\rayGit\FQ\quimicaComputacional\clase8Pka\productos\hydroniumHF_mixed_two.chk
%mem=1500MB
%nprocshared=4
# opt=readfc geom=check guess=check freq hf/6-31+g(d,p) scrf=smd

Hydronium HF mixed two

1 1
 O                  0.00063193   -0.00064027   -0.47227658
 H                 -0.17469207    0.89018673   -0.16251258
 H                 -0.68440207   -0.59676227   -0.16232958
 H                  0.85964493   -0.29421127   -0.16201358
 O                  2.43557086   -0.83279003    0.40718795
 O                 -0.49635246    2.52455375    0.40579986
 O                 -1.94091130   -1.69018654    0.40618420
 H                  3.07165711   -0.12042297    0.30957922
 H                  2.37367266   -1.08201217    1.33220521
 H                 -1.64544345   -2.12800240    1.20781754
 H                 -2.74015669   -1.19119812    0.59007920
 H                  0.21551215    3.10576844    0.12824219
 H                 -1.32575706    2.83482059    0.03509445

