%chk=D:\Documents\rayGit\FQ\quimicaComputacional\p3Eteno\estadoDeTransicion\TSETHENEOHRADICALM052X.chk
%nprocshared=4
%mem=1500mb
# opt=(readfc,ts,noeigen) geom=check guess=check freq=noraman 6-31+g(d,p) iop(1/8=3) m052x

Transition state Ethene OH radical with M052X TWO

0 2
