%chk=D:\Documents\rayGit\FQ\quimicaComputacional\p3Eteno\estadoDeTransicion\TSETHENEOHRADICALHF.chk
%nprocshared=4
%mem=1500mb
# opt=(readfc,ts,noeigen) geom=check guess=check freq=noraman 6-31+g(d,p) iop(1/8=3) hf

Transition state Ethene OH radical with HF two

0 2
