%chk=D:\Documents\rayGit\FQ\quimicaComputacional\proyecto\decompositionHydrogenPeroxide\descompositionByRadicals\gasPhase\step4\ts\tsM062X.chk
%mem=1500MB
%nprocshared=4
# opt=(calcfc,ts,noeigen) freq=noraman 6-31+g(d,p) m062x

ts2

0 1
 O                 -0.71852899   -0.00749995   -0.18852829
 H                 -1.18585860   -0.00749995   -1.50822637
 O                  0.25266230   -0.89289839   -0.06500864
 O                 -1.58642685   -0.00749995   -2.63939616
 H                 -1.10350867   -0.71947831   -3.06539716

