D:\Documents\rayGit\FQ\quimicaComputacional\proyecto\decompositionHydrogenPeroxide\descompositionByRadicals\gasPhase\step1\reactants
%mem=1500MB
%nproc=4
# opt freq=noraman 6-31+g(d,p) m062x

Hydrogen peroxide gas phase with m062x

0 1
 O                 -0.65176762   -0.00749995    0.00000000
 H                 -0.97222221   -0.00749995   -0.90493583
 O                  0.66823238   -0.00749995    0.00000000
 H                  0.98823238    0.89759673    0.00000000


