%chk=C:\Users\sagad\Documents\rayGit\FQ\quimicaComputacional\class3Eteno\estadoDeTransicion\TSETHENEOHRADICALM052X.chk
%nprocshared=4
%mem=500mb
# opt=(calcfc,ts,noeigen) freq=noraman 6-31+g(d,p) iop(1/8=3) m052x

Transition state Ethene OH radical with M052X

0 2
 C                 -0.47616386    0.74809925    0.59177204
 H                  0.05699989   -0.17960567    0.59177204
 H                 -1.54616386    0.74809925    0.59177204
 C                  0.25615442    2.02258051    0.74028518
 H                 -0.32395507    2.76735039    1.24396247
 H                  1.19098020    1.89669794    1.24541323
 O                  0.35776661    2.19607002   -1.24958325
 H                  0.86119806    1.38500880   -1.35125167

