%mem=1500MB
%nprocshared=4
# opt freq 6-31+g(d,p) scrf=smd m062x

fenol m062x

0 2
 C                 -1.10092900    1.20076400    0.00001700
 C                  0.29126000    1.20741600   -0.00005600
 C                  1.04609600    0.00002100   -0.00004900
 C                  0.29125800   -1.20740300   -0.00004000
 C                 -1.10090800   -1.20078700    0.00001700
 C                 -1.81847500   -0.00000200    0.00002200
 H                 -1.63616800    2.14753000    0.00002900
 H                  0.83453400    2.14966900    0.00002500
 H                  0.83458800   -2.14962500    0.00000100
 H                 -1.63616000   -2.14754100   -0.00000300
 H                 -2.90353300   -0.00002300    0.00003400
 O                  2.35711500   -0.00000900    0.00005600

