%mem=1500MB
%nprocshared=4
# opt freq 6-31+g(d,p) scrf=smd m062x

peroxido radical m062x

-1 1
 O                  0.05519600   -0.59837300    0.00000000
 H                 -0.88313300   -0.88188900    0.00000000
 O                  0.05519600    0.70861000    0.00000000

