%chk=D:\Documents\rayGit\FQ\quimicaComputacional\proyecto\decompositionHydrogenPeroxide\decompositionCatalyzedByIodine\step1\ts\ts.chk
%mem=1500MB
%nprocshared=4
# opt=(calcfc,ts,noeigen) freq=noraman lanl2dz scrf=smd iop(1/8=3) m062x

Hydrogen peroxide with iodine

-1 1
 O                 -1.44958394    0.70831201   -0.03650986
 H                 -0.39699994    0.70831201   -0.79944297
 O                  0.52543831    0.70831201    0.27858877
 H                  0.84543831    1.61340869    0.27858877
 I                 -3.18163474    0.70831201    0.96349014

