%chk=D:\Documents\rayGit\FQ\quimicaComputacional\p3Eteno\reactivos\hydroxylRadicalM062x.chk
%nprocshared=4
%mem=1500mb
# opt freq=noraman 6-31+g(d,p) M062x

Hydroxyl radical M062X

0 2
 O                 -2.82939258   -0.18628141    0.00000000
 H                 -3.14984716    0.71865442    0.00000000

