%chk=D:\Documents\rayGit\FQ\quimicaComputacional\proyecto\decompositionHydrogenPeroxide\descompositionByRadicals\gasPhase\step4\ts\Q2ST\r.chk
%mem=1500MB
%nprocshared=4
# opt=(calcfc,ts,noeigen) freq=noraman 6-31+g(d,p) m062x

ts2

0 1
 O                 -0.65176762   -0.00749995    0.00000000
 O                  0.66823238   -0.00749995   -0.00000000
 H                  0.98823238    0.89759673    0.00000000
 O                  1.60156571    2.63236537    0.00000000
 H                  0.85489904    3.23576315    0.00000035

