%chk=C:\Users\sagad\Documents\rayGit\FQ\quimicaComputacional\class2FluorMolecule\fluorAtom\F_B3LYP.chk
# freq B3LYP/6-31+g(d) 

Fluor Atom Calculate with B3LYP Method

0 2
 F                 -0.03276540    1.93971154    0.00000000
