%chk=C:\Users\sagad\Documents\rayGit\FQ\quimicaComputacional\class2FluorMolecule\fluorAtom\F_MP2.chk
# freq MP2/6-31+g(d)

Fluor Atom Calculate with MP2 Method

0 2
 F                 -0.03276540    1.93971154    0.00000000

